3 
4 
5  05 22 37 52 
6  07 22 37 49 
7  04 19 34 49 
8  04 19 34 49 
9  04 19 34 49 
10  04 19 34 49 
11  04 19 34 49 
12  04 19 34 49 
13  04 19 34 49 
14  04 19 34 48 
15  03 18 33 48 
16  03 18 33 48 
17  03 18 33 48 
18  03 18 33 49 
19  04 19 34 51 
20  06 21 36 51 
21  06 21 36 51 
22  06 21 36 52 
23  12 29 
0 
